NAME : sim161.123972.tour
COMMENT : Length = 123972
COMMENT : Found by LKH [Keld Helsgaun] Mon Sep 17 04:36:49 2018
TYPE : TOUR
DIMENSION : 161
TOUR_SECTION
1
57
155
51
109
35
127
15
122
17
36
74
18
138
12
31
77
111
44
38
16
84
64
113
76
5
141
119
118
63
92
124
86
69
52
11
132
2
8
121
137
20
142
80
98
159
94
139
22
78
81
129
128
145
66
88
67
28
100
133
144
107
21
149
83
103
161
72
115
55
125
59
10
42
120
53
30
99
47
114
33
154
93
108
25
87
152
68
60
153
106
14
3
37
146
85
160
151
157
65
91
148
143
102
61
9
43
54
24
105
95
158
27
39
41
6
62
134
90
29
147
126
23
71
89
82
49
104
45
56
58
73
117
140
112
19
79
156
46
26
150
101
40
4
96
97
136
7
135
32
34
110
75
48
130
123
50
70
13
116
131
-1
EOF
